; benchmark generated from python API
(set-info :status unknown)
(declare-fun cell_1_4 () Int)
(declare-fun cell_1_7 () Int)
(declare-fun cell_1_8 () Int)
(declare-fun cell_2_1 () Int)
(declare-fun cell_2_4 () Int)
(declare-fun cell_3_2 () Int)
(declare-fun cell_3_4 () Int)
(declare-fun cell_4_6 () Int)
(declare-fun cell_4_8 () Int)
(declare-fun cell_5_2 () Int)
(declare-fun cell_5_3 () Int)
(declare-fun cell_6_6 () Int)
(declare-fun cell_6_9 () Int)
(declare-fun cell_7_5 () Int)
(declare-fun cell_7_7 () Int)
(declare-fun cell_8_3 () Int)
(declare-fun cell_8_9 () Int)
(declare-fun cell_9_1 () Int)
(declare-fun cell_9_5 () Int)
(declare-fun cell_1_1 () Int)
(declare-fun cell_3_1 () Int)
(declare-fun cell_4_1 () Int)
(declare-fun cell_5_1 () Int)
(declare-fun cell_6_1 () Int)
(declare-fun cell_7_1 () Int)
(declare-fun cell_8_1 () Int)
(declare-fun cell_1_2 () Int)
(declare-fun cell_2_2 () Int)
(declare-fun cell_4_2 () Int)
(declare-fun cell_6_2 () Int)
(declare-fun cell_7_2 () Int)
(declare-fun cell_8_2 () Int)
(declare-fun cell_9_2 () Int)
(declare-fun cell_1_3 () Int)
(declare-fun cell_2_3 () Int)
(declare-fun cell_3_3 () Int)
(declare-fun cell_4_3 () Int)
(declare-fun cell_6_3 () Int)
(declare-fun cell_7_3 () Int)
(declare-fun cell_9_3 () Int)
(declare-fun cell_4_4 () Int)
(declare-fun cell_5_4 () Int)
(declare-fun cell_6_4 () Int)
(declare-fun cell_7_4 () Int)
(declare-fun cell_8_4 () Int)
(declare-fun cell_9_4 () Int)
(declare-fun cell_1_5 () Int)
(declare-fun cell_2_5 () Int)
(declare-fun cell_3_5 () Int)
(declare-fun cell_4_5 () Int)
(declare-fun cell_5_5 () Int)
(declare-fun cell_6_5 () Int)
(declare-fun cell_8_5 () Int)
(declare-fun cell_1_6 () Int)
(declare-fun cell_2_6 () Int)
(declare-fun cell_3_6 () Int)
(declare-fun cell_5_6 () Int)
(declare-fun cell_7_6 () Int)
(declare-fun cell_8_6 () Int)
(declare-fun cell_9_6 () Int)
(declare-fun cell_2_7 () Int)
(declare-fun cell_3_7 () Int)
(declare-fun cell_4_7 () Int)
(declare-fun cell_5_7 () Int)
(declare-fun cell_6_7 () Int)
(declare-fun cell_8_7 () Int)
(declare-fun cell_9_7 () Int)
(declare-fun cell_2_8 () Int)
(declare-fun cell_3_8 () Int)
(declare-fun cell_5_8 () Int)
(declare-fun cell_6_8 () Int)
(declare-fun cell_7_8 () Int)
(declare-fun cell_8_8 () Int)
(declare-fun cell_9_8 () Int)
(declare-fun cell_1_9 () Int)
(declare-fun cell_2_9 () Int)
(declare-fun cell_3_9 () Int)
(declare-fun cell_4_9 () Int)
(declare-fun cell_5_9 () Int)
(declare-fun cell_7_9 () Int)
(declare-fun cell_9_9 () Int)
(assert
 (= cell_1_4 3))
(assert
 (= cell_1_7 1))
(assert
 (= cell_1_8 2))
(assert
 (= cell_2_1 2))
(assert
 (= cell_2_4 1))
(assert
 (= cell_3_2 1))
(assert
 (= cell_3_4 2))
(assert
 (= cell_4_6 2))
(assert
 (= cell_4_8 1))
(assert
 (= cell_5_2 2))
(assert
 (= cell_5_3 1))
(assert
 (= cell_6_6 1))
(assert
 (= cell_6_9 2))
(assert
 (= cell_7_5 1))
(assert
 (= cell_7_7 2))
(assert
 (= cell_8_3 2))
(assert
 (= cell_8_9 1))
(assert
 (= cell_9_1 1))
(assert
 (= cell_9_5 2))
(assert
 (let (($x385 (= cell_1_1 9)))
 (let (($x1295 (= cell_1_1 8)))
 (let (($x3705 (= cell_1_1 7)))
 (let (($x2930 (= cell_1_1 6)))
 (let (($x6724 (= cell_1_1 5)))
 (let (($x3976 (= cell_1_1 4)))
 (let (($x4594 (= cell_1_1 3)))
 (let (($x2628 (= cell_1_1 2)))
 (let (($x3306 (= cell_1_1 1)))
 (or $x3306 $x2628 $x4594 $x3976 $x6724 $x2930 $x3705 $x1295 $x385)))))))))))
(assert
 (let (($x3159 (= cell_2_1 2)))
 (or (= cell_2_1 1) $x3159 (= cell_2_1 3) (= cell_2_1 4) (= cell_2_1 5) (= cell_2_1 6) (= cell_2_1 7) (= cell_2_1 8) (= cell_2_1 9))))
(assert
 (let (($x9268 (= cell_3_1 9)))
 (let (($x7575 (= cell_3_1 8)))
 (let (($x3780 (= cell_3_1 7)))
 (let (($x5915 (= cell_3_1 6)))
 (let (($x8102 (= cell_3_1 5)))
 (let (($x3503 (= cell_3_1 4)))
 (let (($x1616 (= cell_3_1 3)))
 (let (($x6641 (= cell_3_1 2)))
 (let (($x5780 (= cell_3_1 1)))
 (or $x5780 $x6641 $x1616 $x3503 $x8102 $x5915 $x3780 $x7575 $x9268)))))))))))
(assert
 (let (($x1830 (= cell_4_1 9)))
 (let (($x2434 (= cell_4_1 8)))
 (let (($x3461 (= cell_4_1 7)))
 (let (($x9994 (= cell_4_1 6)))
 (let (($x916 (= cell_4_1 5)))
 (let (($x1238 (= cell_4_1 4)))
 (let (($x9411 (= cell_4_1 3)))
 (let (($x8177 (= cell_4_1 2)))
 (let (($x4216 (= cell_4_1 1)))
 (or $x4216 $x8177 $x9411 $x1238 $x916 $x9994 $x3461 $x2434 $x1830)))))))))))
(assert
 (let (($x4138 (= cell_5_1 9)))
 (let (($x1963 (= cell_5_1 8)))
 (let (($x2472 (= cell_5_1 7)))
 (let (($x8961 (= cell_5_1 6)))
 (let (($x1743 (= cell_5_1 5)))
 (let (($x1307 (= cell_5_1 4)))
 (let (($x9920 (= cell_5_1 3)))
 (let (($x3755 (= cell_5_1 2)))
 (let (($x7761 (= cell_5_1 1)))
 (or $x7761 $x3755 $x9920 $x1307 $x1743 $x8961 $x2472 $x1963 $x4138)))))))))))
(assert
 (let (($x373 (= cell_6_1 9)))
 (let (($x8825 (= cell_6_1 8)))
 (let (($x1057 (= cell_6_1 7)))
 (let (($x4254 (= cell_6_1 6)))
 (let (($x2378 (= cell_6_1 5)))
 (let (($x4704 (= cell_6_1 4)))
 (let (($x6282 (= cell_6_1 3)))
 (let (($x7081 (= cell_6_1 2)))
 (let (($x8913 (= cell_6_1 1)))
 (or $x8913 $x7081 $x6282 $x4704 $x2378 $x4254 $x1057 $x8825 $x373)))))))))))
(assert
 (let (($x9013 (= cell_7_1 9)))
 (let (($x5523 (= cell_7_1 8)))
 (let (($x3457 (= cell_7_1 7)))
 (let (($x8169 (= cell_7_1 6)))
 (let (($x4061 (= cell_7_1 5)))
 (let (($x9006 (= cell_7_1 4)))
 (let (($x4208 (= cell_7_1 3)))
 (let (($x7781 (= cell_7_1 2)))
 (let (($x7657 (= cell_7_1 1)))
 (or $x7657 $x7781 $x4208 $x9006 $x4061 $x8169 $x3457 $x5523 $x9013)))))))))))
(assert
 (let (($x8213 (= cell_8_1 9)))
 (let (($x7669 (= cell_8_1 8)))
 (let (($x7348 (= cell_8_1 7)))
 (let (($x517 (= cell_8_1 6)))
 (let (($x7182 (= cell_8_1 5)))
 (let (($x7984 (= cell_8_1 4)))
 (let (($x851 (= cell_8_1 3)))
 (let (($x7690 (= cell_8_1 2)))
 (let (($x1851 (= cell_8_1 1)))
 (or $x1851 $x7690 $x851 $x7984 $x7182 $x517 $x7348 $x7669 $x8213)))))))))))
(assert
 (let (($x4846 (= cell_9_1 1)))
 (or $x4846 (= cell_9_1 2) (= cell_9_1 3) (= cell_9_1 4) (= cell_9_1 5) (= cell_9_1 6) (= cell_9_1 7) (= cell_9_1 8) (= cell_9_1 9))))
(assert
 (let (($x7722 (= cell_1_2 9)))
 (let (($x9589 (= cell_1_2 8)))
 (let (($x9844 (= cell_1_2 7)))
 (let (($x1634 (= cell_1_2 6)))
 (let (($x7249 (= cell_1_2 5)))
 (let (($x1194 (= cell_1_2 4)))
 (let (($x1017 (= cell_1_2 3)))
 (let (($x33 (= cell_1_2 2)))
 (let (($x5945 (= cell_1_2 1)))
 (or $x5945 $x33 $x1017 $x1194 $x7249 $x1634 $x9844 $x9589 $x7722)))))))))))
(assert
 (let (($x5040 (= cell_2_2 9)))
 (let (($x2719 (= cell_2_2 8)))
 (let (($x73 (= cell_2_2 7)))
 (let (($x1676 (= cell_2_2 6)))
 (let (($x9407 (= cell_2_2 5)))
 (let (($x3657 (= cell_2_2 4)))
 (let (($x9826 (= cell_2_2 3)))
 (let (($x3393 (= cell_2_2 2)))
 (let (($x7812 (= cell_2_2 1)))
 (or $x7812 $x3393 $x9826 $x3657 $x9407 $x1676 $x73 $x2719 $x5040)))))))))))
(assert
 (let (($x9755 (= cell_3_2 1)))
 (or $x9755 (= cell_3_2 2) (= cell_3_2 3) (= cell_3_2 4) (= cell_3_2 5) (= cell_3_2 6) (= cell_3_2 7) (= cell_3_2 8) (= cell_3_2 9))))
(assert
 (let (($x8843 (= cell_4_2 9)))
 (let (($x6842 (= cell_4_2 8)))
 (let (($x6212 (= cell_4_2 7)))
 (let (($x4271 (= cell_4_2 6)))
 (let (($x8159 (= cell_4_2 5)))
 (let (($x5487 (= cell_4_2 4)))
 (let (($x5201 (= cell_4_2 3)))
 (let (($x530 (= cell_4_2 2)))
 (let (($x3509 (= cell_4_2 1)))
 (or $x3509 $x530 $x5201 $x5487 $x8159 $x4271 $x6212 $x6842 $x8843)))))))))))
(assert
 (let (($x5620 (= cell_5_2 2)))
 (or (= cell_5_2 1) $x5620 (= cell_5_2 3) (= cell_5_2 4) (= cell_5_2 5) (= cell_5_2 6) (= cell_5_2 7) (= cell_5_2 8) (= cell_5_2 9))))
(assert
 (let (($x4562 (= cell_6_2 9)))
 (let (($x7570 (= cell_6_2 8)))
 (let (($x6499 (= cell_6_2 7)))
 (let (($x4274 (= cell_6_2 6)))
 (let (($x2944 (= cell_6_2 5)))
 (let (($x9299 (= cell_6_2 4)))
 (let (($x1968 (= cell_6_2 3)))
 (let (($x5207 (= cell_6_2 2)))
 (let (($x6181 (= cell_6_2 1)))
 (or $x6181 $x5207 $x1968 $x9299 $x2944 $x4274 $x6499 $x7570 $x4562)))))))))))
(assert
 (let (($x9999 (= cell_7_2 9)))
 (let (($x9052 (= cell_7_2 8)))
 (let (($x4536 (= cell_7_2 7)))
 (let (($x7638 (= cell_7_2 6)))
 (let (($x6130 (= cell_7_2 5)))
 (let (($x2144 (= cell_7_2 4)))
 (let (($x7701 (= cell_7_2 3)))
 (let (($x3365 (= cell_7_2 2)))
 (let (($x2736 (= cell_7_2 1)))
 (or $x2736 $x3365 $x7701 $x2144 $x6130 $x7638 $x4536 $x9052 $x9999)))))))))))
(assert
 (let (($x9686 (= cell_8_2 9)))
 (let (($x5717 (= cell_8_2 8)))
 (let (($x6928 (= cell_8_2 7)))
 (let (($x229 (= cell_8_2 6)))
 (let (($x3131 (= cell_8_2 5)))
 (let (($x1419 (= cell_8_2 4)))
 (let (($x660 (= cell_8_2 3)))
 (let (($x9470 (= cell_8_2 2)))
 (let (($x3872 (= cell_8_2 1)))
 (or $x3872 $x9470 $x660 $x1419 $x3131 $x229 $x6928 $x5717 $x9686)))))))))))
(assert
 (let (($x2487 (= cell_9_2 9)))
 (let (($x346 (= cell_9_2 8)))
 (let (($x5223 (= cell_9_2 7)))
 (let (($x461 (= cell_9_2 6)))
 (let (($x1896 (= cell_9_2 5)))
 (let (($x4850 (= cell_9_2 4)))
 (let (($x8282 (= cell_9_2 3)))
 (let (($x240 (= cell_9_2 2)))
 (let (($x1651 (= cell_9_2 1)))
 (or $x1651 $x240 $x8282 $x4850 $x1896 $x461 $x5223 $x346 $x2487)))))))))))
(assert
 (let (($x6802 (= cell_1_3 9)))
 (let (($x1970 (= cell_1_3 8)))
 (let (($x3848 (= cell_1_3 7)))
 (let (($x9548 (= cell_1_3 6)))
 (let (($x8897 (= cell_1_3 5)))
 (let (($x906 (= cell_1_3 4)))
 (let (($x4404 (= cell_1_3 3)))
 (let (($x3418 (= cell_1_3 2)))
 (let (($x1671 (= cell_1_3 1)))
 (or $x1671 $x3418 $x4404 $x906 $x8897 $x9548 $x3848 $x1970 $x6802)))))))))))
(assert
 (let (($x5478 (= cell_2_3 9)))
 (let (($x3150 (= cell_2_3 8)))
 (let (($x8352 (= cell_2_3 7)))
 (let (($x9978 (= cell_2_3 6)))
 (let (($x9101 (= cell_2_3 5)))
 (let (($x5385 (= cell_2_3 4)))
 (let (($x7765 (= cell_2_3 3)))
 (let (($x9493 (= cell_2_3 2)))
 (let (($x9943 (= cell_2_3 1)))
 (or $x9943 $x9493 $x7765 $x5385 $x9101 $x9978 $x8352 $x3150 $x5478)))))))))))
(assert
 (let (($x2161 (= cell_3_3 9)))
 (let (($x10021 (= cell_3_3 8)))
 (let (($x6329 (= cell_3_3 7)))
 (let (($x6662 (= cell_3_3 6)))
 (let (($x7644 (= cell_3_3 5)))
 (let (($x5769 (= cell_3_3 4)))
 (let (($x1880 (= cell_3_3 3)))
 (let (($x3331 (= cell_3_3 2)))
 (let (($x9423 (= cell_3_3 1)))
 (or $x9423 $x3331 $x1880 $x5769 $x7644 $x6662 $x6329 $x10021 $x2161)))))))))))
(assert
 (let (($x7109 (= cell_4_3 9)))
 (let (($x7412 (= cell_4_3 8)))
 (let (($x6402 (= cell_4_3 7)))
 (let (($x8190 (= cell_4_3 6)))
 (let (($x5627 (= cell_4_3 5)))
 (let (($x3050 (= cell_4_3 4)))
 (let (($x1861 (= cell_4_3 3)))
 (let (($x1443 (= cell_4_3 2)))
 (let (($x10099 (= cell_4_3 1)))
 (or $x10099 $x1443 $x1861 $x3050 $x5627 $x8190 $x6402 $x7412 $x7109)))))))))))
(assert
 (let (($x8467 (= cell_5_3 1)))
 (or $x8467 (= cell_5_3 2) (= cell_5_3 3) (= cell_5_3 4) (= cell_5_3 5) (= cell_5_3 6) (= cell_5_3 7) (= cell_5_3 8) (= cell_5_3 9))))
(assert
 (let (($x2910 (= cell_6_3 9)))
 (let (($x3414 (= cell_6_3 8)))
 (let (($x3815 (= cell_6_3 7)))
 (let (($x552 (= cell_6_3 6)))
 (let (($x5217 (= cell_6_3 5)))
 (let (($x5256 (= cell_6_3 4)))
 (let (($x5362 (= cell_6_3 3)))
 (let (($x310 (= cell_6_3 2)))
 (let (($x292 (= cell_6_3 1)))
 (or $x292 $x310 $x5362 $x5256 $x5217 $x552 $x3815 $x3414 $x2910)))))))))))
(assert
 (let (($x4229 (= cell_7_3 9)))
 (let (($x3405 (= cell_7_3 8)))
 (let (($x1440 (= cell_7_3 7)))
 (let (($x4465 (= cell_7_3 6)))
 (let (($x9906 (= cell_7_3 5)))
 (let (($x8141 (= cell_7_3 4)))
 (let (($x8732 (= cell_7_3 3)))
 (let (($x3477 (= cell_7_3 2)))
 (let (($x3902 (= cell_7_3 1)))
 (or $x3902 $x3477 $x8732 $x8141 $x9906 $x4465 $x1440 $x3405 $x4229)))))))))))
(assert
 (let (($x5968 (= cell_8_3 2)))
 (or (= cell_8_3 1) $x5968 (= cell_8_3 3) (= cell_8_3 4) (= cell_8_3 5) (= cell_8_3 6) (= cell_8_3 7) (= cell_8_3 8) (= cell_8_3 9))))
(assert
 (let (($x3290 (= cell_9_3 9)))
 (let (($x6430 (= cell_9_3 8)))
 (let (($x4898 (= cell_9_3 7)))
 (let (($x8239 (= cell_9_3 6)))
 (let (($x1889 (= cell_9_3 5)))
 (let (($x4126 (= cell_9_3 4)))
 (let (($x8950 (= cell_9_3 3)))
 (let (($x1150 (= cell_9_3 2)))
 (let (($x661 (= cell_9_3 1)))
 (or $x661 $x1150 $x8950 $x4126 $x1889 $x8239 $x4898 $x6430 $x3290)))))))))))
(assert
 (let (($x1452 (= cell_1_4 3)))
 (or (= cell_1_4 1) (= cell_1_4 2) $x1452 (= cell_1_4 4) (= cell_1_4 5) (= cell_1_4 6) (= cell_1_4 7) (= cell_1_4 8) (= cell_1_4 9))))
(assert
 (let (($x2380 (= cell_2_4 1)))
 (or $x2380 (= cell_2_4 2) (= cell_2_4 3) (= cell_2_4 4) (= cell_2_4 5) (= cell_2_4 6) (= cell_2_4 7) (= cell_2_4 8) (= cell_2_4 9))))
(assert
 (let (($x1610 (= cell_3_4 2)))
 (or (= cell_3_4 1) $x1610 (= cell_3_4 3) (= cell_3_4 4) (= cell_3_4 5) (= cell_3_4 6) (= cell_3_4 7) (= cell_3_4 8) (= cell_3_4 9))))
(assert
 (let (($x6238 (= cell_4_4 9)))
 (let (($x2800 (= cell_4_4 8)))
 (let (($x6311 (= cell_4_4 7)))
 (let (($x7438 (= cell_4_4 6)))
 (let (($x2707 (= cell_4_4 5)))
 (let (($x9387 (= cell_4_4 4)))
 (let (($x44 (= cell_4_4 3)))
 (let (($x6524 (= cell_4_4 2)))
 (let (($x480 (= cell_4_4 1)))
 (or $x480 $x6524 $x44 $x9387 $x2707 $x7438 $x6311 $x2800 $x6238)))))))))))
(assert
 (let (($x4339 (= cell_5_4 9)))
 (let (($x7637 (= cell_5_4 8)))
 (let (($x5923 (= cell_5_4 7)))
 (let (($x7446 (= cell_5_4 6)))
 (let (($x9196 (= cell_5_4 5)))
 (let (($x6747 (= cell_5_4 4)))
 (let (($x3546 (= cell_5_4 3)))
 (let (($x4466 (= cell_5_4 2)))
 (let (($x6517 (= cell_5_4 1)))
 (or $x6517 $x4466 $x3546 $x6747 $x9196 $x7446 $x5923 $x7637 $x4339)))))))))))
(assert
 (let (($x8408 (= cell_6_4 9)))
 (let (($x3118 (= cell_6_4 8)))
 (let (($x2457 (= cell_6_4 7)))
 (let (($x7052 (= cell_6_4 6)))
 (let (($x9676 (= cell_6_4 5)))
 (let (($x1297 (= cell_6_4 4)))
 (let (($x1673 (= cell_6_4 3)))
 (let (($x7324 (= cell_6_4 2)))
 (let (($x1808 (= cell_6_4 1)))
 (or $x1808 $x7324 $x1673 $x1297 $x9676 $x7052 $x2457 $x3118 $x8408)))))))))))
(assert
 (let (($x4829 (= cell_7_4 9)))
 (let (($x5082 (= cell_7_4 8)))
 (let (($x8716 (= cell_7_4 7)))
 (let (($x1422 (= cell_7_4 6)))
 (let (($x1335 (= cell_7_4 5)))
 (let (($x8244 (= cell_7_4 4)))
 (let (($x3543 (= cell_7_4 3)))
 (let (($x5471 (= cell_7_4 2)))
 (let (($x290 (= cell_7_4 1)))
 (or $x290 $x5471 $x3543 $x8244 $x1335 $x1422 $x8716 $x5082 $x4829)))))))))))
(assert
 (let (($x8254 (= cell_8_4 9)))
 (let (($x2797 (= cell_8_4 8)))
 (let (($x7194 (= cell_8_4 7)))
 (let (($x4369 (= cell_8_4 6)))
 (let (($x957 (= cell_8_4 5)))
 (let (($x7004 (= cell_8_4 4)))
 (let (($x4643 (= cell_8_4 3)))
 (let (($x8185 (= cell_8_4 2)))
 (let (($x5171 (= cell_8_4 1)))
 (or $x5171 $x8185 $x4643 $x7004 $x957 $x4369 $x7194 $x2797 $x8254)))))))))))
(assert
 (let (($x4074 (= cell_9_4 9)))
 (let (($x4461 (= cell_9_4 8)))
 (let (($x2303 (= cell_9_4 7)))
 (let (($x9071 (= cell_9_4 6)))
 (let (($x9563 (= cell_9_4 5)))
 (let (($x8923 (= cell_9_4 4)))
 (let (($x10058 (= cell_9_4 3)))
 (let (($x7153 (= cell_9_4 2)))
 (let (($x3258 (= cell_9_4 1)))
 (or $x3258 $x7153 $x10058 $x8923 $x9563 $x9071 $x2303 $x4461 $x4074)))))))))))
(assert
 (let (($x4500 (= cell_1_5 9)))
 (let (($x9236 (= cell_1_5 8)))
 (let (($x1588 (= cell_1_5 7)))
 (let (($x4763 (= cell_1_5 6)))
 (let (($x5701 (= cell_1_5 5)))
 (let (($x9576 (= cell_1_5 4)))
 (let (($x1098 (= cell_1_5 3)))
 (let (($x8856 (= cell_1_5 2)))
 (let (($x712 (= cell_1_5 1)))
 (or $x712 $x8856 $x1098 $x9576 $x5701 $x4763 $x1588 $x9236 $x4500)))))))))))
(assert
 (let (($x3179 (= cell_2_5 9)))
 (let (($x6512 (= cell_2_5 8)))
 (let (($x3694 (= cell_2_5 7)))
 (let (($x8770 (= cell_2_5 6)))
 (let (($x6728 (= cell_2_5 5)))
 (let (($x7876 (= cell_2_5 4)))
 (let (($x4574 (= cell_2_5 3)))
 (let (($x1108 (= cell_2_5 2)))
 (let (($x5862 (= cell_2_5 1)))
 (or $x5862 $x1108 $x4574 $x7876 $x6728 $x8770 $x3694 $x6512 $x3179)))))))))))
(assert
 (let (($x4044 (= cell_3_5 9)))
 (let (($x2525 (= cell_3_5 8)))
 (let (($x8633 (= cell_3_5 7)))
 (let (($x8220 (= cell_3_5 6)))
 (let (($x1570 (= cell_3_5 5)))
 (let (($x6622 (= cell_3_5 4)))
 (let (($x5807 (= cell_3_5 3)))
 (let (($x8079 (= cell_3_5 2)))
 (let (($x10047 (= cell_3_5 1)))
 (or $x10047 $x8079 $x5807 $x6622 $x1570 $x8220 $x8633 $x2525 $x4044)))))))))))
(assert
 (let (($x7978 (= cell_4_5 9)))
 (let (($x732 (= cell_4_5 8)))
 (let (($x1580 (= cell_4_5 7)))
 (let (($x2776 (= cell_4_5 6)))
 (let (($x2949 (= cell_4_5 5)))
 (let (($x9410 (= cell_4_5 4)))
 (let (($x1030 (= cell_4_5 3)))
 (let (($x4618 (= cell_4_5 2)))
 (let (($x1689 (= cell_4_5 1)))
 (or $x1689 $x4618 $x1030 $x9410 $x2949 $x2776 $x1580 $x732 $x7978)))))))))))
(assert
 (let (($x5278 (= cell_5_5 9)))
 (let (($x7519 (= cell_5_5 8)))
 (let (($x6183 (= cell_5_5 7)))
 (let (($x972 (= cell_5_5 6)))
 (let (($x9971 (= cell_5_5 5)))
 (let (($x1693 (= cell_5_5 4)))
 (let (($x5325 (= cell_5_5 3)))
 (let (($x3891 (= cell_5_5 2)))
 (let (($x2360 (= cell_5_5 1)))
 (or $x2360 $x3891 $x5325 $x1693 $x9971 $x972 $x6183 $x7519 $x5278)))))))))))
(assert
 (let (($x1850 (= cell_6_5 9)))
 (let (($x2712 (= cell_6_5 8)))
 (let (($x1989 (= cell_6_5 7)))
 (let (($x9898 (= cell_6_5 6)))
 (let (($x9212 (= cell_6_5 5)))
 (let (($x2549 (= cell_6_5 4)))
 (let (($x1785 (= cell_6_5 3)))
 (let (($x9714 (= cell_6_5 2)))
 (let (($x7572 (= cell_6_5 1)))
 (or $x7572 $x9714 $x1785 $x2549 $x9212 $x9898 $x1989 $x2712 $x1850)))))))))))
(assert
 (let (($x1745 (= cell_7_5 1)))
 (or $x1745 (= cell_7_5 2) (= cell_7_5 3) (= cell_7_5 4) (= cell_7_5 5) (= cell_7_5 6) (= cell_7_5 7) (= cell_7_5 8) (= cell_7_5 9))))
(assert
 (let (($x8221 (= cell_8_5 9)))
 (let (($x3591 (= cell_8_5 8)))
 (let (($x1144 (= cell_8_5 7)))
 (let (($x6712 (= cell_8_5 6)))
 (let (($x6526 (= cell_8_5 5)))
 (let (($x402 (= cell_8_5 4)))
 (let (($x8228 (= cell_8_5 3)))
 (let (($x5553 (= cell_8_5 2)))
 (let (($x8374 (= cell_8_5 1)))
 (or $x8374 $x5553 $x8228 $x402 $x6526 $x6712 $x1144 $x3591 $x8221)))))))))))
(assert
 (let (($x6166 (= cell_9_5 2)))
 (or (= cell_9_5 1) $x6166 (= cell_9_5 3) (= cell_9_5 4) (= cell_9_5 5) (= cell_9_5 6) (= cell_9_5 7) (= cell_9_5 8) (= cell_9_5 9))))
(assert
 (let (($x4857 (= cell_1_6 9)))
 (let (($x6875 (= cell_1_6 8)))
 (let (($x4095 (= cell_1_6 7)))
 (let (($x2194 (= cell_1_6 6)))
 (let (($x9397 (= cell_1_6 5)))
 (let (($x7588 (= cell_1_6 4)))
 (let (($x1911 (= cell_1_6 3)))
 (let (($x8216 (= cell_1_6 2)))
 (let (($x8111 (= cell_1_6 1)))
 (or $x8111 $x8216 $x1911 $x7588 $x9397 $x2194 $x4095 $x6875 $x4857)))))))))))
(assert
 (let (($x6609 (= cell_2_6 9)))
 (let (($x5732 (= cell_2_6 8)))
 (let (($x4745 (= cell_2_6 7)))
 (let (($x5977 (= cell_2_6 6)))
 (let (($x8393 (= cell_2_6 5)))
 (let (($x5882 (= cell_2_6 4)))
 (let (($x3222 (= cell_2_6 3)))
 (let (($x4863 (= cell_2_6 2)))
 (let (($x4101 (= cell_2_6 1)))
 (or $x4101 $x4863 $x3222 $x5882 $x8393 $x5977 $x4745 $x5732 $x6609)))))))))))
(assert
 (let (($x1934 (= cell_3_6 9)))
 (let (($x4096 (= cell_3_6 8)))
 (let (($x2579 (= cell_3_6 7)))
 (let (($x6786 (= cell_3_6 6)))
 (let (($x7597 (= cell_3_6 5)))
 (let (($x3126 (= cell_3_6 4)))
 (let (($x4115 (= cell_3_6 3)))
 (let (($x8407 (= cell_3_6 2)))
 (let (($x1178 (= cell_3_6 1)))
 (or $x1178 $x8407 $x4115 $x3126 $x7597 $x6786 $x2579 $x4096 $x1934)))))))))))
(assert
 (let (($x7759 (= cell_4_6 2)))
 (or (= cell_4_6 1) $x7759 (= cell_4_6 3) (= cell_4_6 4) (= cell_4_6 5) (= cell_4_6 6) (= cell_4_6 7) (= cell_4_6 8) (= cell_4_6 9))))
(assert
 (let (($x4651 (= cell_5_6 9)))
 (let (($x6369 (= cell_5_6 8)))
 (let (($x7474 (= cell_5_6 7)))
 (let (($x5382 (= cell_5_6 6)))
 (let (($x1390 (= cell_5_6 5)))
 (let (($x3945 (= cell_5_6 4)))
 (let (($x8451 (= cell_5_6 3)))
 (let (($x9939 (= cell_5_6 2)))
 (let (($x104 (= cell_5_6 1)))
 (or $x104 $x9939 $x8451 $x3945 $x1390 $x5382 $x7474 $x6369 $x4651)))))))))))
(assert
 (let (($x5422 (= cell_6_6 1)))
 (or $x5422 (= cell_6_6 2) (= cell_6_6 3) (= cell_6_6 4) (= cell_6_6 5) (= cell_6_6 6) (= cell_6_6 7) (= cell_6_6 8) (= cell_6_6 9))))
(assert
 (let (($x9982 (= cell_7_6 9)))
 (let (($x7853 (= cell_7_6 8)))
 (let (($x43 (= cell_7_6 7)))
 (let (($x3911 (= cell_7_6 6)))
 (let (($x9506 (= cell_7_6 5)))
 (let (($x3559 (= cell_7_6 4)))
 (let (($x2612 (= cell_7_6 3)))
 (let (($x1744 (= cell_7_6 2)))
 (let (($x2190 (= cell_7_6 1)))
 (or $x2190 $x1744 $x2612 $x3559 $x9506 $x3911 $x43 $x7853 $x9982)))))))))))
(assert
 (let (($x7505 (= cell_8_6 9)))
 (let (($x6595 (= cell_8_6 8)))
 (let (($x9915 (= cell_8_6 7)))
 (let (($x8139 (= cell_8_6 6)))
 (let (($x9603 (= cell_8_6 5)))
 (let (($x1151 (= cell_8_6 4)))
 (let (($x8799 (= cell_8_6 3)))
 (let (($x5047 (= cell_8_6 2)))
 (let (($x8180 (= cell_8_6 1)))
 (or $x8180 $x5047 $x8799 $x1151 $x9603 $x8139 $x9915 $x6595 $x7505)))))))))))
(assert
 (let (($x2451 (= cell_9_6 2)))
 (let (($x206 (= cell_9_6 1)))
 (or $x206 $x2451 (= cell_9_6 3) (= cell_9_6 4) (= cell_9_6 5) (= cell_9_6 6) (= cell_9_6 7) (= cell_9_6 8) (= cell_9_6 9)))))
(assert
 (let (($x989 (= cell_1_7 1)))
 (or $x989 (= cell_1_7 2) (= cell_1_7 3) (= cell_1_7 4) (= cell_1_7 5) (= cell_1_7 6) (= cell_1_7 7) (= cell_1_7 8) (= cell_1_7 9))))
(assert
 (let (($x6804 (= cell_2_7 9)))
 (let (($x7826 (= cell_2_7 8)))
 (let (($x7084 (= cell_2_7 7)))
 (let (($x9588 (= cell_2_7 6)))
 (let (($x3587 (= cell_2_7 5)))
 (let (($x5891 (= cell_2_7 4)))
 (let (($x4977 (= cell_2_7 3)))
 (let (($x65 (= cell_2_7 2)))
 (let (($x4265 (= cell_2_7 1)))
 (or $x4265 $x65 $x4977 $x5891 $x3587 $x9588 $x7084 $x7826 $x6804)))))))))))
(assert
 (let (($x4610 (= cell_3_7 9)))
 (let (($x4077 (= cell_3_7 8)))
 (let (($x7288 (= cell_3_7 7)))
 (let (($x8172 (= cell_3_7 6)))
 (let (($x8731 (= cell_3_7 5)))
 (let (($x1219 (= cell_3_7 4)))
 (let (($x7756 (= cell_3_7 3)))
 (let (($x9775 (= cell_3_7 2)))
 (let (($x991 (= cell_3_7 1)))
 (or $x991 $x9775 $x7756 $x1219 $x8731 $x8172 $x7288 $x4077 $x4610)))))))))))
(assert
 (let (($x8879 (= cell_4_7 9)))
 (let (($x702 (= cell_4_7 8)))
 (let (($x4058 (= cell_4_7 7)))
 (let (($x343 (= cell_4_7 6)))
 (let (($x4149 (= cell_4_7 5)))
 (let (($x1910 (= cell_4_7 4)))
 (let (($x5101 (= cell_4_7 3)))
 (let (($x2841 (= cell_4_7 2)))
 (let (($x4015 (= cell_4_7 1)))
 (or $x4015 $x2841 $x5101 $x1910 $x4149 $x343 $x4058 $x702 $x8879)))))))))))
(assert
 (let (($x8645 (= cell_5_7 9)))
 (let (($x2495 (= cell_5_7 8)))
 (let (($x8965 (= cell_5_7 7)))
 (let (($x2696 (= cell_5_7 6)))
 (let (($x7120 (= cell_5_7 5)))
 (let (($x8 (= cell_5_7 4)))
 (let (($x713 (= cell_5_7 3)))
 (let (($x2694 (= cell_5_7 2)))
 (let (($x5942 (= cell_5_7 1)))
 (or $x5942 $x2694 $x713 $x8 $x7120 $x2696 $x8965 $x2495 $x8645)))))))))))
(assert
 (let (($x5694 (= cell_6_7 9)))
 (let (($x5452 (= cell_6_7 8)))
 (let (($x1205 (= cell_6_7 7)))
 (let (($x9916 (= cell_6_7 6)))
 (let (($x5251 (= cell_6_7 5)))
 (let (($x6336 (= cell_6_7 4)))
 (let (($x7077 (= cell_6_7 3)))
 (let (($x735 (= cell_6_7 2)))
 (let (($x4365 (= cell_6_7 1)))
 (or $x4365 $x735 $x7077 $x6336 $x5251 $x9916 $x1205 $x5452 $x5694)))))))))))
(assert
 (let (($x883 (= cell_7_7 2)))
 (or (= cell_7_7 1) $x883 (= cell_7_7 3) (= cell_7_7 4) (= cell_7_7 5) (= cell_7_7 6) (= cell_7_7 7) (= cell_7_7 8) (= cell_7_7 9))))
(assert
 (let (($x7188 (= cell_8_7 9)))
 (let (($x9288 (= cell_8_7 8)))
 (let (($x5702 (= cell_8_7 7)))
 (let (($x5955 (= cell_8_7 6)))
 (let (($x2088 (= cell_8_7 5)))
 (let (($x7292 (= cell_8_7 4)))
 (let (($x8760 (= cell_8_7 3)))
 (let (($x3409 (= cell_8_7 2)))
 (let (($x8643 (= cell_8_7 1)))
 (or $x8643 $x3409 $x8760 $x7292 $x2088 $x5955 $x5702 $x9288 $x7188)))))))))))
(assert
 (let (($x799 (= cell_9_7 2)))
 (let (($x5391 (= cell_9_7 1)))
 (or $x5391 $x799 (= cell_9_7 3) (= cell_9_7 4) (= cell_9_7 5) (= cell_9_7 6) (= cell_9_7 7) (= cell_9_7 8) (= cell_9_7 9)))))
(assert
 (let (($x7245 (= cell_1_8 2)))
 (or (= cell_1_8 1) $x7245 (= cell_1_8 3) (= cell_1_8 4) (= cell_1_8 5) (= cell_1_8 6) (= cell_1_8 7) (= cell_1_8 8) (= cell_1_8 9))))
(assert
 (let (($x828 (= cell_2_8 9)))
 (let (($x4732 (= cell_2_8 8)))
 (let (($x7642 (= cell_2_8 7)))
 (let (($x7020 (= cell_2_8 6)))
 (let (($x7573 (= cell_2_8 5)))
 (let (($x6956 (= cell_2_8 4)))
 (let (($x494 (= cell_2_8 3)))
 (let (($x3967 (= cell_2_8 2)))
 (let (($x8381 (= cell_2_8 1)))
 (or $x8381 $x3967 $x494 $x6956 $x7573 $x7020 $x7642 $x4732 $x828)))))))))))
(assert
 (let (($x4601 (= cell_3_8 9)))
 (let (($x6469 (= cell_3_8 8)))
 (let (($x2792 (= cell_3_8 7)))
 (let (($x3820 (= cell_3_8 6)))
 (let (($x6435 (= cell_3_8 5)))
 (let (($x1806 (= cell_3_8 4)))
 (let (($x7030 (= cell_3_8 3)))
 (let (($x3364 (= cell_3_8 2)))
 (let (($x2581 (= cell_3_8 1)))
 (or $x2581 $x3364 $x7030 $x1806 $x6435 $x3820 $x2792 $x6469 $x4601)))))))))))
(assert
 (let (($x4256 (= cell_4_8 1)))
 (or $x4256 (= cell_4_8 2) (= cell_4_8 3) (= cell_4_8 4) (= cell_4_8 5) (= cell_4_8 6) (= cell_4_8 7) (= cell_4_8 8) (= cell_4_8 9))))
(assert
 (let (($x5263 (= cell_5_8 9)))
 (let (($x5021 (= cell_5_8 8)))
 (let (($x8625 (= cell_5_8 7)))
 (let (($x4654 (= cell_5_8 6)))
 (let (($x7327 (= cell_5_8 5)))
 (let (($x1319 (= cell_5_8 4)))
 (let (($x84 (= cell_5_8 3)))
 (let (($x9165 (= cell_5_8 2)))
 (let (($x3673 (= cell_5_8 1)))
 (or $x3673 $x9165 $x84 $x1319 $x7327 $x4654 $x8625 $x5021 $x5263)))))))))))
(assert
 (let (($x9756 (= cell_6_8 9)))
 (let (($x539 (= cell_6_8 8)))
 (let (($x8449 (= cell_6_8 7)))
 (let (($x8953 (= cell_6_8 6)))
 (let (($x3782 (= cell_6_8 5)))
 (let (($x6791 (= cell_6_8 4)))
 (let (($x1530 (= cell_6_8 3)))
 (let (($x1231 (= cell_6_8 2)))
 (let (($x9474 (= cell_6_8 1)))
 (or $x9474 $x1231 $x1530 $x6791 $x3782 $x8953 $x8449 $x539 $x9756)))))))))))
(assert
 (let (($x10034 (= cell_7_8 9)))
 (let (($x6565 (= cell_7_8 8)))
 (let (($x4255 (= cell_7_8 7)))
 (let (($x6483 (= cell_7_8 6)))
 (let (($x2005 (= cell_7_8 5)))
 (let (($x2067 (= cell_7_8 4)))
 (let (($x5400 (= cell_7_8 3)))
 (let (($x966 (= cell_7_8 2)))
 (let (($x3478 (= cell_7_8 1)))
 (or $x3478 $x966 $x5400 $x2067 $x2005 $x6483 $x4255 $x6565 $x10034)))))))))))
(assert
 (let (($x5418 (= cell_8_8 9)))
 (let (($x7870 (= cell_8_8 8)))
 (let (($x4744 (= cell_8_8 7)))
 (let (($x5827 (= cell_8_8 6)))
 (let (($x4712 (= cell_8_8 5)))
 (let (($x8676 (= cell_8_8 4)))
 (let (($x6590 (= cell_8_8 3)))
 (let (($x7059 (= cell_8_8 2)))
 (let (($x3658 (= cell_8_8 1)))
 (or $x3658 $x7059 $x6590 $x8676 $x4712 $x5827 $x4744 $x7870 $x5418)))))))))))
(assert
 (let (($x7072 (= cell_9_8 2)))
 (let (($x4429 (= cell_9_8 1)))
 (or $x4429 $x7072 (= cell_9_8 3) (= cell_9_8 4) (= cell_9_8 5) (= cell_9_8 6) (= cell_9_8 7) (= cell_9_8 8) (= cell_9_8 9)))))
(assert
 (let (($x2764 (= cell_1_9 9)))
 (let (($x5515 (= cell_1_9 8)))
 (let (($x763 (= cell_1_9 7)))
 (let (($x2688 (= cell_1_9 6)))
 (let (($x5326 (= cell_1_9 5)))
 (let (($x4894 (= cell_1_9 4)))
 (let (($x1977 (= cell_1_9 3)))
 (let (($x8839 (= cell_1_9 2)))
 (let (($x6503 (= cell_1_9 1)))
 (or $x6503 $x8839 $x1977 $x4894 $x5326 $x2688 $x763 $x5515 $x2764)))))))))))
(assert
 (let (($x5521 (= cell_2_9 9)))
 (let (($x2394 (= cell_2_9 8)))
 (let (($x5843 (= cell_2_9 7)))
 (let (($x3915 (= cell_2_9 6)))
 (let (($x2873 (= cell_2_9 5)))
 (let (($x9022 (= cell_2_9 4)))
 (let (($x1697 (= cell_2_9 3)))
 (let (($x8035 (= cell_2_9 2)))
 (let (($x8515 (= cell_2_9 1)))
 (or $x8515 $x8035 $x1697 $x9022 $x2873 $x3915 $x5843 $x2394 $x5521)))))))))))
(assert
 (let (($x7996 (= cell_3_9 9)))
 (let (($x6625 (= cell_3_9 8)))
 (let (($x5580 (= cell_3_9 7)))
 (let (($x4634 (= cell_3_9 6)))
 (let (($x1197 (= cell_3_9 5)))
 (let (($x5938 (= cell_3_9 4)))
 (let (($x4896 (= cell_3_9 3)))
 (let (($x2250 (= cell_3_9 2)))
 (let (($x452 (= cell_3_9 1)))
 (or $x452 $x2250 $x4896 $x5938 $x1197 $x4634 $x5580 $x6625 $x7996)))))))))))
(assert
 (let (($x1111 (= cell_4_9 9)))
 (let (($x1575 (= cell_4_9 8)))
 (let (($x6990 (= cell_4_9 7)))
 (let (($x9219 (= cell_4_9 6)))
 (let (($x9707 (= cell_4_9 5)))
 (let (($x8624 (= cell_4_9 4)))
 (let (($x2485 (= cell_4_9 3)))
 (let (($x7881 (= cell_4_9 2)))
 (let (($x7379 (= cell_4_9 1)))
 (or $x7379 $x7881 $x2485 $x8624 $x9707 $x9219 $x6990 $x1575 $x1111)))))))))))
(assert
 (let (($x984 (= cell_5_9 9)))
 (let (($x8730 (= cell_5_9 8)))
 (let (($x3997 (= cell_5_9 7)))
 (let (($x6559 (= cell_5_9 6)))
 (let (($x1028 (= cell_5_9 5)))
 (let (($x3728 (= cell_5_9 4)))
 (let (($x5960 (= cell_5_9 3)))
 (let (($x7407 (= cell_5_9 2)))
 (let (($x1257 (= cell_5_9 1)))
 (or $x1257 $x7407 $x5960 $x3728 $x1028 $x6559 $x3997 $x8730 $x984)))))))))))
(assert
 (let (($x8183 (= cell_6_9 2)))
 (or (= cell_6_9 1) $x8183 (= cell_6_9 3) (= cell_6_9 4) (= cell_6_9 5) (= cell_6_9 6) (= cell_6_9 7) (= cell_6_9 8) (= cell_6_9 9))))
(assert
 (let (($x1690 (= cell_7_9 9)))
 (let (($x6910 (= cell_7_9 8)))
 (let (($x2963 (= cell_7_9 7)))
 (let (($x48 (= cell_7_9 6)))
 (let (($x9958 (= cell_7_9 5)))
 (let (($x9254 (= cell_7_9 4)))
 (let (($x589 (= cell_7_9 3)))
 (let (($x5722 (= cell_7_9 2)))
 (let (($x8459 (= cell_7_9 1)))
 (or $x8459 $x5722 $x589 $x9254 $x9958 $x48 $x2963 $x6910 $x1690)))))))))))
(assert
 (let (($x8807 (= cell_8_9 1)))
 (or $x8807 (= cell_8_9 2) (= cell_8_9 3) (= cell_8_9 4) (= cell_8_9 5) (= cell_8_9 6) (= cell_8_9 7) (= cell_8_9 8) (= cell_8_9 9))))
(assert
 (let (($x2256 (= cell_9_9 2)))
 (let (($x2022 (= cell_9_9 1)))
 (or $x2022 $x2256 (= cell_9_9 3) (= cell_9_9 4) (= cell_9_9 5) (= cell_9_9 6) (= cell_9_9 7) (= cell_9_9 8) (= cell_9_9 9)))))
(assert
 (and (distinct cell_1_1 cell_1_2 cell_1_3 cell_1_4 cell_1_5 cell_1_6 cell_1_7 cell_1_8 cell_1_9) true))
(assert
 (and (distinct cell_2_1 cell_2_2 cell_2_3 cell_2_4 cell_2_5 cell_2_6 cell_2_7 cell_2_8 cell_2_9) true))
(assert
 (and (distinct cell_3_1 cell_3_2 cell_3_3 cell_3_4 cell_3_5 cell_3_6 cell_3_7 cell_3_8 cell_3_9) true))
(assert
 (and (distinct cell_4_1 cell_4_2 cell_4_3 cell_4_4 cell_4_5 cell_4_6 cell_4_7 cell_4_8 cell_4_9) true))
(assert
 (and (distinct cell_5_1 cell_5_2 cell_5_3 cell_5_4 cell_5_5 cell_5_6 cell_5_7 cell_5_8 cell_5_9) true))
(assert
 (and (distinct cell_6_1 cell_6_2 cell_6_3 cell_6_4 cell_6_5 cell_6_6 cell_6_7 cell_6_8 cell_6_9) true))
(assert
 (and (distinct cell_7_1 cell_7_2 cell_7_3 cell_7_4 cell_7_5 cell_7_6 cell_7_7 cell_7_8 cell_7_9) true))
(assert
 (and (distinct cell_8_1 cell_8_2 cell_8_3 cell_8_4 cell_8_5 cell_8_6 cell_8_7 cell_8_8 cell_8_9) true))
(assert
 (and (distinct cell_9_1 cell_9_2 cell_9_3 cell_9_4 cell_9_5 cell_9_6 cell_9_7 cell_9_8 cell_9_9) true))
(assert
 (and (distinct cell_1_1 cell_2_1 cell_3_1 cell_4_1 cell_5_1 cell_6_1 cell_7_1 cell_8_1 cell_9_1) true))
(assert
 (and (distinct cell_1_2 cell_2_2 cell_3_2 cell_4_2 cell_5_2 cell_6_2 cell_7_2 cell_8_2 cell_9_2) true))
(assert
 (and (distinct cell_1_3 cell_2_3 cell_3_3 cell_4_3 cell_5_3 cell_6_3 cell_7_3 cell_8_3 cell_9_3) true))
(assert
 (and (distinct cell_1_4 cell_2_4 cell_3_4 cell_4_4 cell_5_4 cell_6_4 cell_7_4 cell_8_4 cell_9_4) true))
(assert
 (and (distinct cell_1_5 cell_2_5 cell_3_5 cell_4_5 cell_5_5 cell_6_5 cell_7_5 cell_8_5 cell_9_5) true))
(assert
 (and (distinct cell_1_6 cell_2_6 cell_3_6 cell_4_6 cell_5_6 cell_6_6 cell_7_6 cell_8_6 cell_9_6) true))
(assert
 (and (distinct cell_1_7 cell_2_7 cell_3_7 cell_4_7 cell_5_7 cell_6_7 cell_7_7 cell_8_7 cell_9_7) true))
(assert
 (and (distinct cell_1_8 cell_2_8 cell_3_8 cell_4_8 cell_5_8 cell_6_8 cell_7_8 cell_8_8 cell_9_8) true))
(assert
 (and (distinct cell_1_9 cell_2_9 cell_3_9 cell_4_9 cell_5_9 cell_6_9 cell_7_9 cell_8_9 cell_9_9) true))
(assert
 (and (distinct cell_1_1 cell_1_2 cell_1_3 cell_2_1 cell_2_2 cell_2_3 cell_3_1 cell_3_2 cell_3_3) true))
(assert
 (and (distinct cell_1_4 cell_1_5 cell_1_6 cell_2_4 cell_2_5 cell_2_6 cell_3_4 cell_3_5 cell_3_6) true))
(assert
 (and (distinct cell_1_7 cell_1_8 cell_1_9 cell_2_7 cell_2_8 cell_2_9 cell_3_7 cell_3_8 cell_3_9) true))
(assert
 (and (distinct cell_4_1 cell_4_2 cell_4_3 cell_5_1 cell_5_2 cell_5_3 cell_6_1 cell_6_2 cell_6_3) true))
(assert
 (and (distinct cell_4_4 cell_4_5 cell_4_6 cell_5_4 cell_5_5 cell_5_6 cell_6_4 cell_6_5 cell_6_6) true))
(assert
 (and (distinct cell_4_7 cell_4_8 cell_4_9 cell_5_7 cell_5_8 cell_5_9 cell_6_7 cell_6_8 cell_6_9) true))
(assert
 (and (distinct cell_7_1 cell_7_2 cell_7_3 cell_8_1 cell_8_2 cell_8_3 cell_9_1 cell_9_2 cell_9_3) true))
(assert
 (and (distinct cell_7_4 cell_7_5 cell_7_6 cell_8_4 cell_8_5 cell_8_6 cell_9_4 cell_9_5 cell_9_6) true))
(assert
 (and (distinct cell_7_7 cell_7_8 cell_7_9 cell_8_7 cell_8_8 cell_8_9 cell_9_7 cell_9_8 cell_9_9) true))
(assert
 (let (($x5919 (and (distinct cell_5_9 cell_6_8 cell_7_7 cell_8_6) true)))
 (let (($x2243 (and (distinct cell_2_9 cell_3_8 cell_4_7 cell_5_6 cell_6_5 cell_7_4 cell_8_3 cell_9_2) true)))
 (let (($x7275 (and (distinct cell_1_8 cell_2_7 cell_3_6 cell_4_5 cell_5_4 cell_6_3 cell_7_2 cell_8_1) true)))
 (let (($x7099 (and (distinct cell_1_5 cell_2_4 cell_3_3 cell_4_2) true)))
 (let (($x3944 (and (distinct cell_5_1 cell_6_2 cell_7_3 cell_8_4) true)))
 (let (($x5632 (and (distinct cell_2_1 cell_3_2 cell_4_3 cell_5_4 cell_6_5 cell_7_6 cell_8_7 cell_9_8) true)))
 (let (($x5145 (and (distinct cell_1_2 cell_2_3 cell_3_4 cell_4_5 cell_5_6 cell_6_7 cell_7_8 cell_8_9) true)))
 (let (($x5401 (and (distinct cell_1_5 cell_2_6 cell_3_7 cell_4_8) true)))
 (and $x5401 $x5145 $x5632 $x3944 $x7099 $x7275 $x2243 $x5919))))))))))
(assert
 (and (distinct cell_2_7 3) true))
(check-sat)
